graphs/DSJR500.1.col
p edge 500 3555
e 1 28
e 1 76
e 1 149
e 1 151
e 1 157
e 1 191
e 1 204
e 1 221
e 1 273
e 1 276
e 1 293
e 1 308
e 1 352
e 1 413
e 1 419
e 1 426
e 1 448
e 1 479
e 1 490
e 2 24
e 2 89
e 2 91
e 2 96
e 2 136
e 2 162
e 2 198
e 2 227
e 2 298
e 2 307
e 2 371
e 2 375
e 2 414
e 2 444
e 2 452
e 2 453
e 2 474
e 2 477
e 2 500
e 3 31
e 3 163
e 3 175
e 3 206
e 3 271
e 3 295
e 3 357
e 3 376
e 3 382
e 3 435
e 3 442
e 3 460
e 3 495
e 4 40
e 4 55
e 4 88
e 4 117
e 4 126
e 4 147
e 4 168
e 4 189
e 4 213
e 4 252
e 4 257
e 4 282
e 4 312
e 4 328
e 4 347
e 4 379
e 4 423
e 4 439
e 4 463
e 4 483
e 4 488
e 4 491
e 5 37
e 5 41
e 5 54
e 5 61
e 5 62
e 5 82
e 5 127
e 5 131
e 5 138
e 5 177
e 5 199
e 5 260
e 5 263
e 5 281
e 5 289
e 5 296
e 5 314
e 5 324
e 5 341
e 5 377
e 5 386
e 5 412
e 5 431
e 5 461
e 6 30
e 6 49
e 6 68
e 6 154
e 6 208
e 6 238
e 6 304
e 6 401
e 6 425
e 6 441
e 6 473
e 7 36
e 7 56
e 7 92
e 7 112
e 7 193
e 7 226
e 7 275
e 7 297
e 7 406
e 7 450
e 7 487
e 8 80
e 8 112
e 8 133
e 8 275
e 8 287
e 8 338
e 8 392
e 8 403
e 8 406
e 8 450
e 8 466
e 8 487
e 8 498
e 9 12
e 9 53
e 9 66
e 9 76
e 9 149
e 9 166
e 9 191
e 9 204
e 9 235
e 9 273
e 9 276
e 9 295
e 9 308
e 9 352
e 9 367
e 9 402
e 9 419
e 10 23
e 10 46
e 10 90
e 10 159
e 10 241
e 10 242
e 10 270
e 10 301
e 10 349
e 10 399
e 11 18
e 11 28
e 11 59
e 11 151
e 11 157
e 11 172
e 11 175
e 11 206
e 11 221
e 11 294
e 11 348
e 11 358
e 11 448
e 11 468
e 11 495
e 11 497
e 12 53
e 12 66
e 12 79
e 12 135
e 12 160
e 12 166
e 12 212
e 12 235
e 12 276
e 12 331
e 12 352
e 12 402
e 13 81
e 13 207
e 13 216
e 13 304
e 13 305
e 13 435
e 13 460
e 13 473
e 14 16
e 14 78
e 14 115
e 14 116
e 14 211
e 14 218
e 14 225
e 14 329
e 14 381
e 14 398
e 14 411
e 14 422
e 14 427
e 14 433
e 14 458
e 14 459
e 14 486
e 15 131
e 15 199
e 15 260
e 15 302
e 15 354
e 15 378
e 15 407
e 15 421
e 15 432
e 15 461
e 16 78
e 16 111
e 16 116
e 16 211
e 16 243
e 16 319
e 16 329
e 16 336
e 16 381
e 16 398
e 16 411
e 16 422
e 16 427
e 16 433
e 16 458
e 16 459
e 16 472
e 17 43
e 17 64
e 17 77
e 17 85
e 17 95
e 17 116
e 17 137
e 17 217
e 17 246
e 17 247
e 17 248
e 17 250
e 17 264
e 17 316
e 17 336
e 17 429
e 17 459
e 17 472
e 18 35
e 18 125
e 18 141
e 18 175
e 18 195
e 18 206
e 18 254
e 18 261
e 18 382
e 18 390
e 18 489
e 19 43
e 19 77
e 19 93
e 19 145
e 19 217
e 19 250
e 19 264
e 19 316
e 19 336
e 20 63
e 20 118
e 20 146
e 20 224
e 20 229
e 20 245
e 20 345
e 20 374
e 20 467
e 21 67
e 21 71
e 21 104
e 21 134
e 21 187
e 21 202
e 21 240
e 21 272
e 21 278
e 21 309
e 21 318
e 21 365
e 21 373
e 21 496
e 22 74
e 22 129
e 22 130
e 22 173
e 22 224
e 22 266
e 22 274
e 22 333
e 22 385
e 22 388
e 22 400
e 22 457
e 22 462
e 23 46
e 23 90
e 23 159
e 23 241
e 23 270
e 23 301
e 23 399
e 24 34
e 24 89
e 24 91
e 24 136
e 24 162
e 24 198
e 24 227
e 24 303
e 24 307
e 24 353
e 24 371
e 24 375
e 24 404
e 24 444
e 24 453
e 24 474
e 24 477
e 24 500
e 25 44
e 25 46
e 25 60
e 25 90
e 25 101
e 25 139
e 25 173
e 25 174
e 25 182
e 25 192
e 25 241
e 25 266
e 25 349
e 25 387
e 25 449
e 25 457
e 26 97
e 26 98
e 26 179
e 26 320
e 26 339
e 26 368
e 27 48
e 27 125
e 27 141
e 27 163
e 27 195
e 27 210
e 27 228
e 27 234
e 27 265
e 27 300
e 27 337
e 27 351
e 27 357
e 27 376
e 27 382
e 27 390
e 27 393
e 27 428
e 27 437
e 27 451
e 28 59
e 28 76
e 28 149
e 28 151
e 28 157
e 28 172
e 28 191
e 28 204
e 28 221
e 28 223
e 28 273
e 28 294
e 28 308
e 28 348
e 28 367
e 28 413
e 28 418
e 28 419
e 28 448
e 28 468
e 28 495
e 29 237
e 29 262
e 29 292
e 29 299
e 29 335
e 29 345
e 29 355
e 29 391
e 29 476
e 29 479
e 29 485
e 30 49
e 30 68
e 30 86
e 30 113
e 30 154
e 30 207
e 30 208
e 30 216
e 30 322
e 30 401
e 30 409
e 30 425
e 30 473
e 31 235
e 31 271
e 31 295
e 31 304
e 31 367
e 31 402
e 31 435
e 31 441
e 31 442
e 31 460
e 31 495
e 32 107
e 32 215
e 32 290
e 32 300
e 32 313
e 32 327
e 32 342
e 32 351
e 32 370
e 32 380
e 32 428
e 32 454
e 32 471
e 33 108
e 33 163
e 33 210
e 33 234
e 33 271
e 33 305
e 33 320
e 33 337
e 33 357
e 33 376
e 33 383
e 33 393
e 33 435
e 33 442
e 33 443
e 34 84
e 34 91
e 34 96
e 34 119
e 34 136
e 34 288
e 34 315
e 34 371
e 34 375
e 34 453
e 34 470
e 34 474
e 34 477
e 35 39
e 35 73
e 35 152
e 35 158
e 35 195
e 35 254
e 35 261
e 35 283
e 35 350
e 35 390
e 35 396
e 35 434
e 35 478
e 35 480
e 35 489
e 36 56
e 36 112
e 36 193
e 36 226
e 36 297
e 36 406
e 36 487
e 37 54
e 37 61
e 37 62
e 37 127
e 37 131
e 37 138
e 37 177
e 37 281
e 37 289
e 37 296
e 37 314
e 37 377
e 37 431
e 37 436
e 37 455
e 37 461
e 37 484
e 38 89
e 38 162
e 38 185
e 38 227
e 38 232
e 38 237
e 38 292
e 38 299
e 38 307
e 38 335
e 38 355
e 38 389
e 38 391
e 38 414
e 38 492
e 38 499
e 39 73
e 39 152
e 39 158
e 39 254
e 39 261
e 39 283
e 39 350
e 39 396
e 39 434
e 39 480
e 39 489
e 40 87
e 40 126
e 40 147
e 40 162
e 40 168
e 40 213
e 40 252
e 40 257
e 40 298
e 40 347
e 40 379
e 40 414
e 40 423
e 40 430
e 40 452
e 40 463
e 40 483
e 40 488
e 41 54
e 41 82
e 41 128
e 41 144
e 41 170
e 41 177
e 41 183
e 41 260
e 41 263
e 41 281
e 41 296
e 41 314
e 41 321
e 41 324
e 41 341
e 41 386
e 41 412
e 41 429
e 41 431
e 42 151
e 42 157
e 42 172
e 42 223
e 42 230
e 42 348
e 42 358
e 42 418
e 42 446
e 42 448
e 42 468
e 42 497
e 43 64
e 43 77
e 43 85
e 43 95
e 43 116
e 43 145
e 43 217
e 43 247
e 43 250
e 43 264
e 43 316
e 43 336
e 43 433
e 43 459
e 43 472
e 44 60
e 44 101
e 44 104
e 44 139
e 44 173
e 44 192
e 44 266
e 44 318
e 44 366
e 44 457
e 44 462
e 45 114
e 45 124
e 45 169
e 45 194
e 45 212
e 45 238
e 45 325
e 45 331
e 45 356
e 45 372
e 45 405
e 46 60
e 46 90
e 46 139
e 46 173
e 46 241
e 46 242
e 46 266
e 46 270
e 46 301
e 46 349
e 46 385
e 46 399
e 47 77
e 47 85
e 47 93
e 47 144
e 47 170
e 47 190
e 47 256
e 47 264
e 47 334
e 47 346
e 47 363
e 47 447
e 48 125
e 48 141
e 48 163
e 48 178
e 48 195
e 48 210
e 48 228
e 48 234
e 48 265
e 48 300
e 48 313
e 48 327
e 48 337
e 48 351
e 48 376
e 48 390
e 48 393
e 48 428
e 48 437
e 48 451
e 48 471
e 49 68
e 49 86
e 49 113
e 49 114
e 49 154
e 49 207
e 49 208
e 49 322
e 49 356
e 49 401
e 49 409
e 49 425
e 49 473
e 50 57
e 50 181
e 50 219
e 50 267
e 50 285
e 50 291
e 50 303
e 50 326
e 50 353
e 50 360
e 50 369
e 50 397
e 50 404
e 50 492
e 51 74
e 51 130
e 51 148
e 51 186
e 51 233
e 51 258
e 51 378
e 51 410
e 51 424
e 51 438
e 51 456
e 52 58
e 52 100
e 52 123
e 52 214
e 52 277
e 52 286
e 52 325
e 52 372
e 53 66
e 53 76
e 53 79
e 53 135
e 53 149
e 53 166
e 53 191
e 53 204
e 53 273
e 53 276
e 53 308
e 53 352
e 53 367
e 53 402
e 53 419
e 54 61
e 54 62
e 54 82
e 54 131
e 54 144
e 54 170
e 54 199
e 54 260
e 54 263
e 54 281
e 54 289
e 54 296
e 54 314
e 54 324
e 54 341
e 54 354
e 54 377
e 54 412
e 54 421
e 54 431
e 54 461
e 55 80
e 55 140
e 55 189
e 55 239
e 55 253
e 55 257
e 55 282
e 55 312
e 55 379
e 55 392
e 55 403
e 55 430
e 55 439
e 55 463
e 55 466
e 55 482
e 55 483
e 56 92
e 56 112
e 56 193
e 56 226
e 56 275
e 56 297
e 56 406
e 56 450
e 56 487
e 57 75
e 57 91
e 57 136
e 57 268
e 57 291
e 57 303
e 57 315
e 57 332
e 57 340
e 57 353
e 57 404
e 57 469
e 58 100
e 58 123
e 58 214
e 58 277
e 58 286
e 58 325
e 58 361
e 58 372
e 58 405
e 58 481
e 59 149
e 59 151
e 59 157
e 59 172
e 59 175
e 59 221
e 59 294
e 59 308
e 59 348
e 59 367
e 59 413
e 59 448
e 59 468
e 59 495
e 60 90
e 60 101
e 60 139
e 60 173
e 60 182
e 60 192
e 60 241
e 60 242
e 60 266
e 60 333
e 60 349
e 60 366
e 60 400
e 60 457
e 60 462
e 61 62
e 61 82
e 61 127
e 61 131
e 61 138
e 61 177
e 61 199
e 61 260
e 61 263
e 61 281
e 61 289
e 61 296
e 61 314
e 61 324
e 61 341
e 61 377
e 61 431
e 61 461
e 62 127
e 62 131
e 62 138
e 62 177
e 62 260
e 62 281
e 62 289
e 62 296
e 62 314
e 62 377
e 62 431
e 62 436
e 62 455
e 62 461
e 62 484
e 63 129
e 63 146
e 63 165
e 63 224
e 63 245
e 63 267
e 63 345
e 63 369
e 63 485
e 64 85
e 64 95
e 64 116
e 64 137
e 64 217
e 64 246
e 64 247
e 64 250
e 64 264
e 64 316
e 64 336
e 64 433
e 64 459
e 64 472
e 65 67
e 65 161
e 65 203
e 65 272
e 65 278
e 65 306
e 65 365
e 65 373
e 65 384
e 65 395
e 65 440
e 66 149
e 66 166
e 66 191
e 66 235
e 66 273
e 66 276
e 66 295
e 66 308
e 66 352
e 66 367
e 66 402
e 66 419
e 67 71
e 67 134
e 67 187
e 67 202
e 67 272
e 67 278
e 67 306
e 67 365
e 67 373
e 67 440
e 67 496
e 68 154
e 68 208
e 68 238
e 68 401
e 68 409
e 68 425
e 68 441
e 68 473
e 69 83
e 69 102
e 69 105
e 69 110
e 69 142
e 69 143
e 69 153
e 69 156
e 69 188
e 69 201
e 69 209
e 69 222
e 69 231
e 69 259
e 69 323
e 69 408
e 69 445
e 69 464
e 69 478
e 70 121
e 70 122
e 70 176
e 70 205
e 70 279
e 70 280
e 70 330
e 70 359
e 70 394
e 70 420
e 71 104
e 71 187
e 71 202
e 71 278
e 71 279
e 71 318
e 71 365
e 71 366
e 72 102
e 72 105
e 72 164
e 72 167
e 72 184
e 72 197
e 72 215
e 72 244
e 72 317
e 72 323
e 72 454
e 73 254
e 73 350
e 73 358
e 73 396
e 73 434
e 74 130
e 74 148
e 74 240
e 74 258
e 74 309
e 74 462
e 74 496
e 75 159
e 75 219
e 75 268
e 75 291
e 75 332
e 75 340
e 75 404
e 75 415
e 75 469
e 76 191
e 76 204
e 76 221
e 76 251
e 76 273
e 76 276
e 76 293
e 76 308
e 76 344
e 76 352
e 76 413
e 76 419
e 76 426
e 76 490
e 77 85
e 77 93
e 77 144
e 77 170
e 77 217
e 77 250
e 77 256
e 77 264
e 77 316
e 77 334
e 77 346
e 77 429
e 78 111
e 78 116
e 78 211
e 78 225
e 78 243
e 78 329
e 78 381
e 78 398
e 78 411
e 78 422
e 78 427
e 78 433
e 78 458
e 78 472
e 79 109
e 79 135
e 79 160
e 79 166
e 79 214
e 79 276
e 79 331
e 79 352
e 79 361
e 79 362
e 79 372
e 79 405
e 79 481
e 80 99
e 80 196
e 80 239
e 80 312
e 80 379
e 80 392
e 80 403
e 80 466
e 80 482
e 81 97
e 81 98
e 81 179
e 81 207
e 81 216
e 81 305
e 81 320
e 81 368
e 81 383
e 82 131
e 82 144
e 82 170
e 82 199
e 82 260
e 82 263
e 82 281
e 82 314
e 82 324
e 82 334
e 82 341
e 82 354
e 82 412
e 82 421
e 82 431
e 83 102
e 83 105
e 83 110
e 83 143
e 83 156
e 83 178
e 83 188
e 83 201
e 83 209
e 83 222
e 83 231
e 83 244
e 83 313
e 83 323
e 83 408
e 83 445
e 83 464
e 83 478
e 84 96
e 84 119
e 84 288
e 84 371
e 84 375
e 84 416
e 84 453
e 84 470
e 85 95
e 85 144
e 85 170
e 85 247
e 85 248
e 85 264
e 85 316
e 85 334
e 85 412
e 85 429
e 86 113
e 86 114
e 86 124
e 86 154
e 86 194
e 86 322
e 86 356
e 86 401
e 86 409
e 87 89
e 87 126
e 87 147
e 87 162
e 87 168
e 87 185
e 87 252
e 87 257
e 87 298
e 87 307
e 87 414
e 87 430
e 87 444
e 87 452
e 87 463
e 87 483
e 87 488
e 87 500
e 88 117
e 88 189
e 88 213
e 88 252
e 88 257
e 88 277
e 88 282
e 88 312
e 88 328
e 88 347
e 88 379
e 88 423
e 88 439
e 88 483
e 88 491
e 89 91
e 89 136
e 89 162
e 89 198
e 89 227
e 89 298
e 89 307
e 89 353
e 89 375
e 89 414
e 89 444
e 89 452
e 89 453
e 89 474
e 89 477
e 89 500
e 90 101
e 90 139
e 90 173
e 90 241
e 90 242
e 90 266
e 90 270
e 90 349
e 90 387
e 90 399
e 90 457
e 91 136
e 91 198
e 91 268
e 91 303
e 91 315
e 91 332
e 91 353
e 91 371
e 91 375
e 91 404
e 91 453
e 91 469
e 91 474
e 91 477
e 91 500
e 92 112
e 92 133
e 92 226
e 92 275
e 92 297
e 92 338
e 92 406
e 92 450
e 92 487
e 93 190
e 93 256
e 93 264
e 93 346
e 93 363
e 93 447
e 94 103
e 94 115
e 94 137
e 94 167
e 94 180
e 94 184
e 94 197
e 94 218
e 94 220
e 94 225
e 94 246
e 94 381
e 94 459
e 94 486
e 95 116
e 95 137
e 95 180
e 95 217
e 95 236
e 95 246
e 95 247
e 95 248
e 95 250
e 95 316
e 95 336
e 95 429
e 95 433
e 95 459
e 95 472
e 96 119
e 96 287
e 96 298
e 96 371
e 96 375
e 96 416
e 96 444
e 96 452
e 96 453
e 96 474
e 96 477
e 96 498
e 96 500
e 97 98
e 97 179
e 97 305
e 97 320
e 97 339
e 97 368
e 98 179
e 98 216
e 98 305
e 98 320
e 98 339
e 98 368
e 99 196
e 99 239
e 99 392
e 99 482
e 100 109
e 100 123
e 100 135
e 100 214
e 100 277
e 100 286
e 100 325
e 100 361
e 100 372
e 100 405
e 100 481
e 101 139
e 101 173
e 101 176
e 101 182
e 101 192
e 101 241
e 101 266
e 101 349
e 101 366
e 101 387
e 101 449
e 101 457
e 102 105
e 102 110
e 102 143
e 102 156
e 102 164
e 102 188
e 102 201
e 102 209
e 102 244
e 102 313
e 102 317
e 102 323
e 102 445
e 102 454
e 103 105
e 103 115
e 103 167
e 103 184
e 103 197
e 103 218
e 103 220
e 103 317
e 103 486
e 104 134
e 104 192
e 104 202
e 104 240
e 104 309
e 104 318
e 104 365
e 104 366
e 104 462
e 104 496
e 105 110
e 105 143
e 105 156
e 105 164
e 105 184
e 105 188
e 105 197
e 105 201
e 105 244
e 105 317
e 105 323
e 105 454
e 105 464
e 106 120
e 106 150
e 106 161
e 106 395
e 106 432
e 106 440
e 106 493
e 107 143
e 107 164
e 107 188
e 107 215
e 107 244
e 107 313
e 107 327
e 107 351
e 107 370
e 107 380
e 107 428
e 107 437
e 107 454
e 107 471
e 108 210
e 108 228
e 108 234
e 108 265
e 108 290
e 108 300
e 108 320
e 108 337
e 108 342
e 108 357
e 108 376
e 108 380
e 108 383
e 108 393
e 108 443
e 108 451
e 109 117
e 109 135
e 109 166
e 109 269
e 109 352
e 109 361
e 109 362
e 109 481
e 109 491
e 110 156
e 110 180
e 110 197
e 110 201
e 110 231
e 110 244
e 110 259
e 110 317
e 110 323
e 110 408
e 110 464
e 111 211
e 111 243
e 111 319
e 111 329
e 111 398
e 111 422
e 111 427
e 111 433
e 111 458
e 111 472
e 112 133
e 112 193
e 112 226
e 112 275
e 112 297
e 112 392
e 112 406
e 112 450
e 112 487
e 113 114
e 113 154
e 113 208
e 113 322
e 113 401
e 113 409
e 114 124
e 114 154
e 114 194
e 114 238
e 114 322
e 114 356
e 114 401
e 115 116
e 115 218
e 115 220
e 115 225
e 115 246
e 115 381
e 115 398
e 115 411
e 115 422
e 115 427
e 115 458
e 115 459
e 115 486
e 116 211
e 116 217
e 116 243
e 116 250
e 116 316
e 116 319
e 116 329
e 116 336
e 116 381
e 116 398
e 116 411
e 116 422
e 116 427
e 116 433
e 116 458
e 116 459
e 116 472
e 117 213
e 117 252
e 117 269
e 117 282
e 117 328
e 117 347
e 117 361
e 117 362
e 117 364
e 117 423
e 117 439
e 117 491
e 118 127
e 118 146
e 118 186
e 118 229
e 118 374
e 118 436
e 118 455
e 118 456
e 118 467
e 118 484
e 119 338
e 119 371
e 119 375
e 119 416
e 119 453
e 119 474
e 120 155
e 120 161
e 120 395
e 120 432
e 120 493
e 121 122
e 121 280
e 121 330
e 121 359
e 121 420
e 122 280
e 122 330
e 122 359
e 122 420
e 123 214
e 123 277
e 123 286
e 123 325
e 123 361
e 123 372
e 123 405
e 123 481
e 124 154
e 124 169
e 124 194
e 124 212
e 124 238
e 124 331
e 124 356
e 124 401
e 125 141
e 125 163
e 125 178
e 125 195
e 125 206
e 125 228
e 125 234
e 125 261
e 125 265
e 125 300
e 125 351
e 125 376
e 125 382
e 125 390
e 125 393
e 125 437
e 125 451
e 126 147
e 126 168
e 126 213
e 126 252
e 126 257
e 126 298
e 126 347
e 126 379
e 126 414
e 126 423
e 126 430
e 126 452
e 126 463
e 126 483
e 126 488
e 127 131
e 127 138
e 127 186
e 127 281
e 127 289
e 127 296
e 127 377
e 127 436
e 127 455
e 127 456
e 127 461
e 127 484
e 128 138
e 128 142
e 128 152
e 128 153
e 128 158
e 128 177
e 128 183
e 128 281
e 128 283
e 128 296
e 128 314
e 128 343
e 128 350
e 128 386
e 128 396
e 128 431
e 128 480
e 129 165
e 129 181
e 129 224
e 129 245
e 129 267
e 129 274
e 129 333
e 129 385
e 129 388
e 129 397
e 129 400
e 130 148
e 130 240
e 130 258
e 130 274
e 130 309
e 130 462
e 131 199
e 131 260
e 131 281
e 131 289
e 131 302
e 131 354
e 131 377
e 131 407
e 131 421
e 131 431
e 131 456
e 131 461
e 132 140
e 132 189
e 132 253
e 132 277
e 132 282
e 132 310
e 132 312
e 132 439
e 133 275
e 133 287
e 133 338
e 133 406
e 133 416
e 133 450
e 133 487
e 133 498
e 134 203
e 134 240
e 134 258
e 134 272
e 134 284
e 134 309
e 134 318
e 134 365
e 134 373
e 134 384
e 134 424
e 134 496
e 135 160
e 135 166
e 135 214
e 135 331
e 135 361
e 135 362
e 135 372
e 135 405
e 135 481
e 136 198
e 136 268
e 136 291
e 136 303
e 136 315
e 136 332
e 136 353
e 136 371
e 136 375
e 136 404
e 136 469
e 136 474
e 136 477
e 136 500
e 137 180
e 137 218
e 137 220
e 137 236
e 137 246
e 137 247
e 137 248
e 137 381
e 137 459
e 138 177
e 138 183
e 138 281
e 138 289
e 138 296
e 138 377
e 138 431
e 138 436
e 138 455
e 138 484
e 139 173
e 139 182
e 139 192
e 139 241
e 139 242
e 139 266
e 139 349
e 139 366
e 139 457
e 139 462
e 140 189
e 140 196
e 140 239
e 140 253
e 140 277
e 140 282
e 140 310
e 140 312
e 140 379
e 140 439
e 140 482
e 141 163
e 141 178
e 141 195
e 141 206
e 141 228
e 141 234
e 141 261
e 141 265
e 141 351
e 141 376
e 141 382
e 141 390
e 141 393
e 141 437
e 141 451
e 142 152
e 142 153
e 142 158
e 142 177
e 142 183
e 142 222
e 142 231
e 142 283
e 142 321
e 142 343
e 142 386
e 142 396
e 142 408
e 142 478
e 142 480
e 143 156
e 143 178
e 143 188
e 143 201
e 143 209
e 143 222
e 143 231
e 143 244
e 143 313
e 143 323
e 143 327
e 143 437
e 143 445
e 143 454
e 143 471
e 143 478
e 144 170
e 144 199
e 144 260
e 144 263
e 144 314
e 144 321
e 144 324
e 144 334
e 144 341
e 144 412
e 144 421
e 144 429
e 144 431
e 145 217
e 145 250
e 145 264
e 145 316
e 145 319
e 145 336
e 145 472
e 146 186
e 146 229
e 146 245
e 146 345
e 146 374
e 146 467
e 147 162
e 147 168
e 147 252
e 147 257
e 147 298
e 147 379
e 147 414
e 147 430
e 147 452
e 147 463
e 147 466
e 147 483
e 147 488
e 148 224
e 148 233
e 148 258
e 148 274
e 148 410
e 149 157
e 149 191
e 149 204
e 149 221
e 149 235
e 149 273
e 149 276
e 149 294
e 149 295
e 149 308
e 149 367
e 149 402
e 149 413
e 149 419
e 149 495
e 150 203
e 150 233
e 150 284
e 150 302
e 150 373
e 150 378
e 150 384
e 150 395
e 150 407
e 150 424
e 150 438
e 150 440
e 151 157
e 151 172
e 151 221
e 151 223
e 151 294
e 151 348
e 151 358
e 151 413
e 151 418
e 151 448
e 151 468
e 151 497
e 152 153
e 152 158
e 152 183
e 152 222
e 152 231
e 152 254
e 152 261
e 152 283
e 152 343
e 152 350
e 152 396
e 152 478
e 152 480
e 152 489
e 153 183
e 153 201
e 153 222
e 153 231
e 153 259
e 153 283
e 153 321
e 153 343
e 153 386
e 153 408
e 153 464
e 153 478
e 153 480
e 154 194
e 154 208
e 154 238
e 154 322
e 154 356
e 154 401
e 154 409
e 154 425
e 154 473
e 155 190
e 155 256
e 155 346
e 155 363
e 155 432
e 155 447
e 156 178
e 156 188
e 156 201
e 156 209
e 156 222
e 156 231
e 156 244
e 156 259
e 156 313
e 156 317
e 156 323
e 156 408
e 156 445
e 156 464
e 156 478
e 157 172
e 157 221
e 157 223
e 157 294
e 157 308
e 157 348
e 157 358
e 157 413
e 157 418
e 157 419
e 157 448
e 157 468
e 157 497
e 158 178
e 158 222
e 158 254
e 158 261
e 158 283
e 158 343
e 158 350
e 158 390
e 158 396
e 158 478
e 158 480
e 158 489
e 159 270
e 159 301
e 159 415
e 160 166
e 160 212
e 160 238
e 160 331
e 160 372
e 160 402
e 160 405
e 161 203
e 161 272
e 161 306
e 161 395
e 161 440
e 161 493
e 162 168
e 162 185
e 162 198
e 162 227
e 162 232
e 162 298
e 162 307
e 162 355
e 162 414
e 162 444
e 162 452
e 162 474
e 162 477
e 162 499
e 162 500
e 163 195
e 163 206
e 163 210
e 163 228
e 163 234
e 163 265
e 163 271
e 163 337
e 163 357
e 163 376
e 163 382
e 163 393
e 163 442
e 163 451
e 164 188
e 164 215
e 164 244
e 164 313
e 164 317
e 164 323
e 164 327
e 164 454
e 165 181
e 165 224
e 165 245
e 165 267
e 165 274
e 165 285
e 165 360
e 165 369
e 165 388
e 165 397
e 166 276
e 166 331
e 166 352
e 166 361
e 166 362
e 166 372
e 166 405
e 166 481
e 167 184
e 167 197
e 167 218
e 167 220
e 167 317
e 167 486
e 168 252
e 168 257
e 168 298
e 168 307
e 168 379
e 168 414
e 168 430
e 168 452
e 168 463
e 168 466
e 168 483
e 168 488
e 169 194
e 169 212
e 169 214
e 169 238
e 169 325
e 169 356
e 169 372
e 169 405
e 170 199
e 170 260
e 170 263
e 170 314
e 170 321
e 170 324
e 170 334
e 170 341
e 170 412
e 170 421
e 170 429
e 170 431
e 171 268
e 171 288
e 171 315
e 171 332
e 171 340
e 171 415
e 171 469
e 171 470
e 172 221
e 172 223
e 172 294
e 172 348
e 172 358
e 172 413
e 172 418
e 172 448
e 172 468
e 172 497
e 173 192
e 173 241
e 173 242
e 173 266
e 173 333
e 173 349
e 173 385
e 173 399
e 173 400
e 173 457
e 173 462
e 174 176
e 174 182
e 174 205
e 174 387
e 174 449
e 175 206
e 175 271
e 175 382
e 175 442
e 175 495
e 176 182
e 176 192
e 176 205
e 176 394
e 176 420
e 176 449
e 177 183
e 177 281
e 177 296
e 177 314
e 177 324
e 177 343
e 177 386
e 177 396
e 177 431
e 177 480
e 178 188
e 178 195
e 178 201
e 178 209
e 178 222
e 178 261
e 178 313
e 178 327
e 178 390
e 178 437
e 178 445
e 178 471
e 178 478
e 178 489
e 179 320
e 179 339
e 179 368
e 179 465
e 180 197
e 180 218
e 180 220
e 180 236
e 180 246
e 180 247
e 180 248
e 180 259
e 180 464
e 181 219
e 181 242
e 181 267
e 181 274
e 181 285
e 181 291
e 181 326
e 181 333
e 181 360
e 181 385
e 181 388
e 181 397
e 181 399
e 181 400
e 182 192
e 182 205
e 182 241
e 182 349
e 182 387
e 182 394
e 182 449
e 183 281
e 183 283
e 183 296
e 183 314
e 183 321
e 183 324
e 183 341
e 183 343
e 183 386
e 183 396
e 183 431
e 183 480
e 184 197
e 184 218
e 184 220
e 184 317
e 184 323
e 184 486
e 185 227
e 185 232
e 185 237
e 185 299
e 185 307
e 185 335
e 185 355
e 185 389
e 185 414
e 185 417
e 185 499
e 186 229
e 186 233
e 186 289
e 186 374
e 186 377
e 186 410
e 186 436
e 186 438
e 186 455
e 186 456
e 186 467
e 186 484
e 187 202
e 187 278
e 187 279
e 187 306
e 187 365
e 188 201
e 188 209
e 188 244
e 188 313
e 188 317
e 188 323
e 188 327
e 188 445
e 188 454
e 188 471
e 189 213
e 189 253
e 189 257
e 189 277
e 189 282
e 189 310
e 189 312
e 189 379
e 189 439
e 189 482
e 190 256
e 190 346
e 190 363
e 190 432
e 190 447
e 191 204
e 191 221
e 191 273
e 191 276
e 191 308
e 191 352
e 191 367
e 191 413
e 191 419
e 192 266
e 192 318
e 192 349
e 192 366
e 192 394
e 192 449
e 192 457
e 192 462
e 193 226
e 193 275
e 193 297
e 193 406
e 193 487
e 194 212
e 194 238
e 194 356
e 195 206
e 195 228
e 195 254
e 195 261
e 195 382
e 195 390
e 195 393
e 195 437
e 195 489
e 196 239
e 196 253
e 196 310
e 196 312
e 196 482
e 197 218
e 197 220
e 197 317
e 197 323
e 197 486
e 198 227
e 198 303
e 198 307
e 198 353
e 198 355
e 198 375
e 198 404
e 198 444
e 198 474
e 198 477
e 198 500
e 199 260
e 199 263
e 199 302
e 199 324
e 199 354
e 199 412
e 199 421
e 199 461
e 200 207
e 200 216
e 200 255
e 200 311
e 200 368
e 200 465
e 200 475
e 200 494
e 201 209
e 201 222
e 201 231
e 201 244
e 201 259
e 201 323
e 201 408
e 201 445
e 201 464
e 201 478
e 202 278
e 202 279
e 202 318
e 202 365
e 202 366
e 203 258
e 203 272
e 203 284
e 203 373
e 203 378
e 203 384
e 203 395
e 203 424
e 203 440
e 203 496
e 204 221
e 204 273
e 204 276
e 204 293
e 204 308
e 204 344
e 204 352
e 204 413
e 204 419
e 204 426
e 204 490
e 205 394
e 205 420
e 205 449
e 206 254
e 206 261
e 206 382
e 206 390
e 207 208
e 207 216
e 207 311
e 207 409
e 208 216
e 208 322
e 208 401
e 208 409
e 208 425
e 208 441
e 208 473
e 209 222
e 209 231
e 209 244
e 209 313
e 209 327
e 209 437
e 209 445
e 209 471
e 209 478
e 210 228
e 210 234
e 210 265
e 210 271
e 210 300
e 210 305
e 210 337
e 210 351
e 210 357
e 210 376
e 210 383
e 210 393
e 210 443
e 210 451
e 211 243
e 211 319
e 211 329
e 211 336
e 211 381
e 211 398
e 211 411
e 211 422
e 211 427
e 211 433
e 211 458
e 211 459
e 211 472
e 212 238
e 212 331
e 212 372
e 212 405
e 213 252
e 213 257
e 213 269
e 213 282
e 213 328
e 213 347
e 213 364
e 213 379
e 213 423
e 213 439
e 213 483
e 213 488
e 213 491
e 214 286
e 214 325
e 214 361
e 214 372
e 214 405
e 214 481
e 215 244
e 215 327
e 215 454
e 216 409
e 217 250
e 217 264
e 217 316
e 217 336
e 217 472
e 218 220
e 218 225
e 218 246
e 218 381
e 218 459
e 218 486
e 219 242
e 219 267
e 219 285
e 219 291
e 219 326
e 219 360
e 219 385
e 219 388
e 219 397
e 219 399
e 219 400
e 220 236
e 220 246
e 220 248
e 220 381
e 220 459
e 220 486
e 221 223
e 221 294
e 221 308
e 221 348
e 221 358
e 221 367
e 221 413
e 221 418
e 221 419
e 221 448
e 221 468
e 221 495
e 221 497
e 222 231
e 222 261
e 222 283
e 222 343
e 222 445
e 222 478
e 222 480
e 222 489
e 223 293
e 223 294
e 223 348
e 223 358
e 223 413
e 223 418
e 223 446
e 223 448
e 223 468
e 223 479
e 223 497
e 224 245
e 224 274
e 224 333
e 224 388
e 224 400
e 225 381
e 225 398
e 225 411
e 225 422
e 225 427
e 225 458
e 225 459
e 225 486
e 226 275
e 226 297
e 226 406
e 226 487
e 227 232
e 227 303
e 227 307
e 227 353
e 227 355
e 227 375
e 227 414
e 227 444
e 227 452
e 227 474
e 227 477
e 227 492
e 227 500
e 228 234
e 228 265
e 228 300
e 228 337
e 228 351
e 228 376
e 228 382
e 228 393
e 228 428
e 228 437
e 228 451
e 228 471
e 229 374
e 229 436
e 229 455
e 229 467
e 229 484
e 230 418
e 230 436
e 230 446
e 230 467
e 230 497
e 231 259
e 231 283
e 231 343
e 231 408
e 231 445
e 231 464
e 231 478
e 232 237
e 232 292
e 232 299
e 232 307
e 232 335
e 232 355
e 232 389
e 232 391
e 232 414
e 232 485
e 232 492
e 232 499
e 233 258
e 233 284
e 233 378
e 233 407
e 233 410
e 233 424
e 233 438
e 233 456
e 234 265
e 234 300
e 234 337
e 234 351
e 234 357
e 234 376
e 234 382
e 234 383
e 234 393
e 234 437
e 234 451
e 235 295
e 235 367
e 235 402
e 235 441
e 235 495
e 236 246
e 236 247
e 236 248
e 236 259
e 236 321
e 236 408
e 236 429
e 236 464
e 237 249
e 237 251
e 237 262
e 237 292
e 237 293
e 237 299
e 237 335
e 237 344
e 237 389
e 237 391
e 237 417
e 237 426
e 237 476
e 237 479
e 237 485
e 237 499
e 238 331
e 238 356
e 238 401
e 238 425
e 239 253
e 239 312
e 239 392
e 239 482
e 240 258
e 240 309
e 240 318
e 240 366
e 240 373
e 240 462
e 240 496
e 241 242
e 241 266
e 241 349
e 241 387
e 241 399
e 241 457
e 242 266
e 242 285
e 242 333
e 242 349
e 242 385
e 242 388
e 242 399
e 242 400
e 243 319
e 243 329
e 243 398
e 243 433
e 243 458
e 243 472
e 244 313
e 244 317
e 244 323
e 244 327
e 244 445
e 244 454
e 244 471
e 245 262
e 245 345
e 245 446
e 245 467
e 246 247
e 246 248
e 246 381
e 246 459
e 247 248
e 247 316
e 247 321
e 247 429
e 248 259
e 248 321
e 248 408
e 248 429
e 248 464
e 249 251
e 249 293
e 249 299
e 249 335
e 249 344
e 249 364
e 249 389
e 249 391
e 249 417
e 249 426
e 249 479
e 249 490
e 249 499
e 250 264
e 250 316
e 250 319
e 250 336
e 250 433
e 250 472
e 251 293
e 251 299
e 251 335
e 251 344
e 251 364
e 251 389
e 251 417
e 251 426
e 251 479
e 251 490
e 251 499
e 252 257
e 252 282
e 252 328
e 252 347
e 252 379
e 252 423
e 252 430
e 252 439
e 252 463
e 252 483
e 252 488
e 252 491
e 253 277
e 253 282
e 253 310
e 253 312
e 253 379
e 253 439
e 253 482
e 254 261
e 254 283
e 254 350
e 254 390
e 254 396
e 254 434
e 254 480
e 254 489
e 255 311
e 255 475
e 255 494
e 256 264
e 256 334
e 256 346
e 256 363
e 256 447
e 257 282
e 257 312
e 257 347
e 257 379
e 257 423
e 257 430
e 257 439
e 257 452
e 257 463
e 257 483
e 257 488
e 258 284
e 258 309
e 258 373
e 258 378
e 258 384
e 258 410
e 258 424
e 258 438
e 258 496
e 259 408
e 259 464
e 260 263
e 260 281
e 260 314
e 260 324
e 260 341
e 260 354
e 260 377
e 260 412
e 260 421
e 260 431
e 260 461
e 261 283
e 261 350
e 261 382
e 261 390
e 261 396
e 261 480
e 261 489
e 262 292
e 262 299
e 262 345
e 262 391
e 262 446
e 262 476
e 262 479
e 262 485
e 263 281
e 263 296
e 263 314
e 263 321
e 263 324
e 263 341
e 263 386
e 263 412
e 263 421
e 263 429
e 263 431
e 264 316
e 264 334
e 264 429
e 265 290
e 265 300
e 265 337
e 265 351
e 265 357
e 265 376
e 265 380
e 265 393
e 265 428
e 265 437
e 265 443
e 265 451
e 265 471
e 266 333
e 266 349
e 266 385
e 266 399
e 266 400
e 266 457
e 267 285
e 267 291
e 267 326
e 267 360
e 267 369
e 267 388
e 267 397
e 267 492
e 268 291
e 268 315
e 268 332
e 268 340
e 268 353
e 268 404
e 268 415
e 268 469
e 269 328
e 269 347
e 269 362
e 269 364
e 269 423
e 269 426
e 269 490
e 269 491
e 270 301
e 270 387
e 271 304
e 271 305
e 271 357
e 271 376
e 271 383
e 271 435
e 271 442
e 271 460
e 272 278
e 272 306
e 272 365
e 272 373
e 272 384
e 272 440
e 273 276
e 273 308
e 273 352
e 273 413
e 273 419
e 273 426
e 273 490
e 274 333
e 274 385
e 274 388
e 274 400
e 275 297
e 275 338
e 275 406
e 275 450
e 275 487
e 276 308
e 276 352
e 276 402
e 276 419
e 277 282
e 277 310
e 277 439
e 278 306
e 278 365
e 278 440
e 279 280
e 279 394
e 279 420
e 280 330
e 280 359
e 280 394
e 280 420
e 281 289
e 281 296
e 281 314
e 281 324
e 281 341
e 281 377
e 281 386
e 281 412
e 281 431
e 281 461
e 282 310
e 282 312
e 282 328
e 282 379
e 282 423
e 282 439
e 282 483
e 282 491
e 283 343
e 283 350
e 283 396
e 283 445
e 283 478
e 283 480
e 283 489
e 284 373
e 284 378
e 284 384
e 284 407
e 284 424
e 284 438
e 284 496
e 285 291
e 285 326
e 285 333
e 285 360
e 285 385
e 285 388
e 285 397
e 285 399
e 285 400
e 286 325
e 286 361
e 286 372
e 286 405
e 286 481
e 287 338
e 287 392
e 287 403
e 287 406
e 287 450
e 287 466
e 287 498
e 288 315
e 288 371
e 288 453
e 288 470
e 289 296
e 289 377
e 289 436
e 289 455
e 289 456
e 289 461
e 289 484
e 290 300
e 290 342
e 290 351
e 290 370
e 290 380
e 290 428
e 290 443
e 290 451
e 291 303
e 291 326
e 291 332
e 291 353
e 291 360
e 291 369
e 291 397
e 291 404
e 291 492
e 292 299
e 292 335
e 292 355
e 292 369
e 292 391
e 292 476
e 292 485
e 292 492
e 292 499
e 293 299
e 293 344
e 293 389
e 293 417
e 293 426
e 293 476
e 293 479
e 293 490
e 294 308
e 294 348
e 294 358
e 294 413
e 294 418
e 294 448
e 294 468
e 294 495
e 294 497
e 295 308
e 295 367
e 295 402
e 295 435
e 295 441
e 295 495
e 296 314
e 296 324
e 296 341
e 296 343
e 296 386
e 296 431
e 296 455
e 297 406
e 297 487
e 298 307
e 298 375
e 298 414
e 298 430
e 298 444
e 298 452
e 298 463
e 298 466
e 298 474
e 298 500
e 299 335
e 299 344
e 299 355
e 299 389
e 299 391
e 299 417
e 299 476
e 299 479
e 299 485
e 299 499
e 300 313
e 300 327
e 300 337
e 300 342
e 300 351
e 300 370
e 300 380
e 300 393
e 300 428
e 300 437
e 300 451
e 300 471
e 302 354
e 302 378
e 302 407
e 302 421
e 302 432
e 302 461
e 303 353
e 303 355
e 303 369
e 303 404
e 303 492
e 304 305
e 304 425
e 304 435
e 304 441
e 304 442
e 304 460
e 304 473
e 305 320
e 305 357
e 305 383
e 305 435
e 305 460
e 306 365
e 306 440
e 307 355
e 307 414
e 307 444
e 307 452
e 307 474
e 307 477
e 307 499
e 307 500
e 308 352
e 308 367
e 308 402
e 308 413
e 308 419
e 308 495
e 309 318
e 309 373
e 309 384
e 309 462
e 309 496
e 310 312
e 310 482
e 311 465
e 311 475
e 311 494
e 312 379
e 312 439
e 312 482
e 313 327
e 313 351
e 313 428
e 313 437
e 313 445
e 313 454
e 313 471
e 314 321
e 314 324
e 314 341
e 314 386
e 314 412
e 314 431
e 315 332
e 315 340
e 315 404
e 315 415
e 315 469
e 315 470
e 316 336
e 316 429
e 316 472
e 317 323
e 317 454
e 318 365
e 318 366
e 318 462
e 318 496
e 319 329
e 319 336
e 319 433
e 319 472
e 320 339
e 320 368
e 320 383
e 320 443
e 321 324
e 321 341
e 321 386
e 321 412
e 321 429
e 321 431
e 322 356
e 322 401
e 322 409
e 323 454
e 324 341
e 324 386
e 324 412
e 324 431
e 325 372
e 325 405
e 326 360
e 326 369
e 326 385
e 326 388
e 326 397
e 326 404
e 327 351
e 327 380
e 327 428
e 327 437
e 327 445
e 327 454
e 327 471
e 328 347
e 328 362
e 328 364
e 328 423
e 328 439
e 328 488
e 328 490
e 328 491
e 329 336
e 329 398
e 329 411
e 329 422
e 329 427
e 329 433
e 329 458
e 329 472
e 330 359
e 330 420
e 331 372
e 331 405
e 332 340
e 332 353
e 332 404
e 332 469
e 333 385
e 333 388
e 333 399
e 333 400
e 333 457
e 334 412
e 334 429
e 335 344
e 335 355
e 335 389
e 335 391
e 335 417
e 335 485
e 335 492
e 335 499
e 336 433
e 336 458
e 336 459
e 336 472
e 337 351
e 337 357
e 337 376
e 337 383
e 337 393
e 337 443
e 337 451
e 338 416
e 338 450
e 338 487
e 338 498
e 339 368
e 339 443
e 340 415
e 340 469
e 341 386
e 341 412
e 341 429
e 341 431
e 342 370
e 342 380
e 342 443
e 343 350
e 343 386
e 343 396
e 343 478
e 343 480
e 344 364
e 344 389
e 344 417
e 344 426
e 344 479
e 344 490
e 344 499
e 345 446
e 345 476
e 345 485
e 346 363
e 346 447
e 347 364
e 347 389
e 347 423
e 347 439
e 347 483
e 347 488
e 347 490
e 347 491
e 348 358
e 348 413
e 348 418
e 348 448
e 348 468
e 348 497
e 349 387
e 349 457
e 350 396
e 350 434
e 350 480
e 350 489
e 351 370
e 351 380
e 351 393
e 351 428
e 351 437
e 351 451
e 351 471
e 352 362
e 352 419
e 352 426
e 352 490
e 353 404
e 353 474
e 353 477
e 353 492
e 354 377
e 354 407
e 354 421
e 354 461
e 355 369
e 355 391
e 355 485
e 355 492
e 355 499
e 356 401
e 357 376
e 357 383
e 357 393
e 357 435
e 357 442
e 357 443
e 357 460
e 358 418
e 358 434
e 358 448
e 358 468
e 358 497
e 359 420
e 360 369
e 360 385
e 360 388
e 360 397
e 360 399
e 360 400
e 361 362
e 361 372
e 361 405
e 361 481
e 362 364
e 362 423
e 362 481
e 362 491
e 363 447
e 364 389
e 364 417
e 364 423
e 364 426
e 364 490
e 364 491
e 365 373
e 365 496
e 366 457
e 366 462
e 367 402
e 367 413
e 367 495
e 368 465
e 369 397
e 369 485
e 369 492
e 370 380
e 370 428
e 371 375
e 371 453
e 371 470
e 371 474
e 371 477
e 371 500
e 372 405
e 372 481
e 373 384
e 373 424
e 373 440
e 373 496
e 374 436
e 374 455
e 374 467
e 374 484
e 375 444
e 375 453
e 375 474
e 375 477
e 375 500
e 376 382
e 376 383
e 376 393
e 376 435
e 376 442
e 376 451
e 377 407
e 377 438
e 377 455
e 377 456
e 377 461
e 377 484
e 378 384
e 378 407
e 378 410
e 378 424
e 378 438
e 378 456
e 379 423
e 379 430
e 379 439
e 379 463
e 379 483
e 379 488
e 380 428
e 380 443
e 380 451
e 380 471
e 381 398
e 381 411
e 381 422
e 381 427
e 381 433
e 381 458
e 381 459
e 381 472
e 381 486
e 382 390
e 382 393
e 382 442
e 383 393
e 383 435
e 383 443
e 384 424
e 384 440
e 384 496
e 385 388
e 385 397
e 385 399
e 385 400
e 386 431
e 386 480
e 387 449
e 388 397
e 388 399
e 388 400
e 389 417
e 389 426
e 389 479
e 389 490
e 389 499
e 390 489
e 391 476
e 391 479
e 391 485
e 391 492
e 391 499
e 392 403
e 392 406
e 392 466
e 392 482
e 392 498
e 393 437
e 393 451
e 394 420
e 394 449
e 395 432
e 395 440
e 395 493
e 396 434
e 396 478
e 396 480
e 396 489
e 398 411
e 398 422
e 398 427
e 398 433
e 398 458
e 398 459
e 398 472
e 399 400
e 400 457
e 401 409
e 401 425
e 401 441
e 401 473
e 402 441
e 403 430
e 403 466
e 403 498
e 404 469
e 405 481
e 406 450
e 406 487
e 406 498
e 407 410
e 407 424
e 407 438
e 407 456
e 407 461
e 408 464
e 408 478
e 410 438
e 410 456
e 411 422
e 411 427
e 411 433
e 411 458
e 411 459
e 411 472
e 412 421
e 412 429
e 412 431
e 413 418
e 413 419
e 413 448
e 413 468
e 413 495
e 414 430
e 414 444
e 414 452
e 414 488
e 414 499
e 414 500
e 415 469
e 416 450
e 417 426
e 417 479
e 417 490
e 417 499
e 418 448
e 418 468
e 418 497
e 419 448
e 420 449
e 421 461
e 422 427
e 422 433
e 422 458
e 422 459
e 422 472
e 423 439
e 423 483
e 423 488
e 423 491
e 424 438
e 424 496
e 425 441
e 425 473
e 426 479
e 426 490
e 427 433
e 427 458
e 427 459
e 427 472
e 428 437
e 428 451
e 428 471
e 430 452
e 430 463
e 430 466
e 430 483
e 430 488
e 431 461
e 432 493
e 433 458
e 433 459
e 433 472
e 435 442
e 435 460
e 436 455
e 436 467
e 436 484
e 437 451
e 437 471
e 438 456
e 438 461
e 439 483
e 439 491
e 440 493
e 441 460
e 441 473
e 442 460
e 443 451
e 444 452
e 444 453
e 444 474
e 444 477
e 444 500
e 445 471
e 445 478
e 446 467
e 446 476
e 448 468
e 448 497
e 450 487
e 450 498
e 451 471
e 452 463
e 452 483
e 452 488
e 452 500
e 453 474
e 453 477
e 453 500
e 454 471
e 455 467
e 455 484
e 456 461
e 457 462
e 458 459
e 458 472
e 459 472
e 460 473
e 463 466
e 463 483
e 463 488
e 464 478
e 465 475
e 465 494
e 466 498
e 467 484
e 468 497
e 474 477
e 474 500
e 475 494
e 476 479
e 476 485
e 477 500
e 478 480
e 478 489
e 480 489
e 483 488
e 485 492
