results/clicolcom_results/DSJR500.1.col.log
graphs/DSJR500.1.col
c found max clique of size 12
c found chromatic number: 12
time: 0
